minizinc/sudoku_problems2/sudoku_p13.dzn
%
% sudoku_p13.dzn
% See http://www.hakank.org/minizinc/sudoku_gcc.mzn
% 
% This problem is problem 13 from
% Gecode's sudoku.cpp
% http://www.gecode.org/gecode-doc-latest/sudoku_8cpp-source.html
% 
x = array2d(1..n, 1..n, [   
% Puzzle 8 from http://www.sudoku.org.uk/bifurcation.htm
% 13
  6,  5,  2,  _,  4,  8,  _,  _,  7,
  _,  7,  _,  2,  _,  5,  4,  _,  _,
  _,  _,  _,  _,  _,  _,  _,  _,  _,
  _,  6,  4,  1,  _,  _,  _,  7,  _,
  _,  _,  _,  _,  8,  _,  _,  _,  _,
  _,  8,  _,  _,  _,  4,  5,  6,  _,
  _,  _,  _,  _,  _,  _,  _,  _,  _,
  _,  _,  8,  6,  _,  7,  _,  2,  _,
  2,  _,  _,  8,  9,  _,  7,  5,  1
]);

n = 9;


